Instance name:    bar-n100-2
Authors:          PDPTW Solver
Date:             2025-11-20
Reference:        LNS with SA/RTR
Solution
Route 1 : 20 70 27 22 72 39 89 17 67 77 50 100 25 44 94 75 13 63 46 96
Route 2 : 37 87 29 79 18 68 36 86 5 23 73 11 61 55 14 64 2 52
Route 3 : 32 34 84 82 12 62 19 69 31 33 83 81 16 3 53 66 47 97 7 57 4 54
Route 4 : 26 76 42 92 9 45 95 59 1 51 21 71 10 8 38 88 58 60 41 91
Route 5 : 15 65 40 90 43 93 30 80 6 48 98 56 28 78 49 99 35 85 24 74
